59019
174,271,343,461,493,498,575,889,920,942,979,1011,1419,1650,1656,1868,1956,2286,2287,2362,2492,2652,2795,3039,3100,3178,3232,3258,3329,3884,3987,4242,4252,4391,4451,4679,4788,4841,4926,5093,5172,5179,5261,5458,5554,5667,5671,5853,5951,5980,6170,6176,6189,6253,6262,6512,6564,6616,6693,6775,6963,6969,7041,7090,7200,7353,7422,7482,7577,7654,7698,7743,7927,7966,7981,7985,8021,8057,8354,8464,8594,8735,8843,8846,9076,9203,9212,9235,9529,9597,9647,9659,9782,9799,9976
